10
45
0 1 9107
0 2 1374
0 3 9217
0 4 11315
0 5 9012
0 6 3330
0 7 14056
0 8 10853
0 9 2000
1 2 9707
1 3 2634
1 4 3490
1 5 13705
1 6 9903
1 7 4949
1 8 1746
1 9 7309
2 3 7971
2 4 11915
2 5 9612
2 6 4694
2 7 14656
2 8 11453
2 9 2398
3 4 6124
3 5 16339
3 6 12537
3 7 6685
3 8 3482
3 9 7217
4 5 10215
4 6 7985
4 7 2741
4 8 4628
4 9 9517
5 6 5682
5 7 11208
5 8 14843
5 9 9122
6 7 10726
6 8 11041
6 9 5320
7 8 3635
7 9 12258
8 9 9055
